************************************************************************
file with basedata            : cr360_.bas
initial value random generator: 1745595889
************************************************************************
projects                      :  1
jobs (incl. supersource/sink ):  18
horizon                       :  130
RESOURCES
  - renewable                 :  3   R
  - nonrenewable              :  2   N
  - doubly constrained        :  0   D
************************************************************************
PROJECT INFORMATION:
pronr.  #jobs rel.date duedate tardcost  MPM-Time
    1     16      0       22        2       22
************************************************************************
PRECEDENCE RELATIONS:
jobnr.    #modes  #successors   successors
   1        1          3           2   3   4
   2        3          3           6   9  10
   3        3          3           5   6   9
   4        3          2          13  15
   5        3          3           7  14  16
   6        3          2           8  11
   7        3          1          12
   8        3          1          13
   9        3          2          12  16
  10        3          1          14
  11        3          3          12  13  14
  12        3          2          15  17
  13        3          2          16  17
  14        3          2          15  17
  15        3          1          18
  16        3          1          18
  17        3          1          18
  18        1          0        
************************************************************************
REQUESTS/DURATIONS:
jobnr. mode duration  R 1  R 2  R 3  N 1  N 2
------------------------------------------------------------------------
  1      1     0       0    0    0    0    0
  2      1     5       0    0    6    7    9
         2     7       7    6    5    6    5
         3    10       7    0    4    3    3
  3      1     1       4    8    0    6    3
         2     1       5    7    0    7    3
         3     8       0    7    4    5    2
  4      1     3       0    4    8    7   10
         2     8       9    0    0    7    8
         3     9       9    0    0    7    7
  5      1     1       0    0    7    8    9
         2     4       4    5    6    7    6
         3     8       4    0    0    5    1
  6      1     2       0    6    0    2    9
         2     5       0    0    3    2    8
         3    10       0    4    0    2    7
  7      1     1       0    9    0    5   10
         2     2       0    6    8    4   10
         3     4       0    6    5    3   10
  8      1     1       0    0    5    3   10
         2     7       0    0    2    3    9
         3     8       0    2    0    2    9
  9      1     4       0    0    7    3    8
         2     7       4    7    0    3    7
         3     8       0    6    7    1    5
 10      1     2      10    0    8    8    6
         2     4       0    0    5    8    5
         3     8       0    2    4    8    2
 11      1     5      10    0    9   10    7
         2     6       0    0    9   10    5
         3     7       5    0    0    9    3
 12      1     7       0    0    5    7    3
         2     7       1    0    0    6    3
         3     9       0    7    6    3    2
 13      1     1       0    0    9    5    9
         2     3       7    0    0    4    8
         3    10       4    5    0    2    7
 14      1     6       0    3    0    3    8
         2     6       0    0    8    3    7
         3     8       3    3    7    2    3
 15      1     2       5    7    9    7   10
         2    10       0    0    4    7    9
         3    10       3    0    0    6    9
 16      1     6       0    8    3    2    8
         2     6      10    0    6    2    6
         3     7       8    0    0    2    2
 17      1     3       0    6    0    9   10
         2     5       0    3    4    7    9
         3     6       5    0    0    2    7
 18      1     0       0    0    0    0    0
************************************************************************
RESOURCEAVAILABILITIES:
  R 1  R 2  R 3  N 1  N 2
   23   18   23   93  129
************************************************************************
